100520.0
905
0 1 5 7 8 10 12 15 20 21 23 30 32 36 59 61 67 72 77 80 83 85 88 98 101 104 112 115 117 118 121 124 126 139 142 146 147 148 156 157 158 163 164 170 174 179 180 181 182 184 187 188 190 199 